nohup: ignoring input
./result/saved_models/regression/trained_params_mean_setcover-independentset-combinatorialauction_asymmetric_firstsol_k_prime_epoch163.pth
./result/saved_models/rl/reinforce/setcovering/checkpoint_trained_reward3_simplepolicy_rl4lb_reinforce_trainset_setcovering-small_lr0.01_epochs7.pth
miplib_39binary-small
rootsol
./result/generated_instances/miplib_39binary/-small/rootsol/scip/heuristic_mode/lb-from-rootsol-t_total1200s-t_node2s-small_lb_k0_regression_beforenode/seed120/
seed: 120
cpu
instance:  0
create a new SCIP model
original problem has 3648 variables (192 bin, 0 int, 0 impl, 3456 cont) and 3312 constraints
The initial incumbent of miplib_39binary-0_transformed_a1c1s1 is successfully added to MIP model
miplib_39binary-0_transformed_a1c1s1
N of variables: 3648
N of binary vars: 192
N of constraints: 3312
Initial obj of MIP: 21029.389
* Model status: unknown
* Model status: nodelimit
* Solve stage: 9
* LP status: 1
* number of sol :  1
GNN prediction:  5.6930170103441924e-05
GNN k_0:  1.0
LB heuristic is starting..
LB heuristic starts at 0.033524 s
No. of LB call:  1
LB initial objective: 21029.389
The init sol of original MIP is feasible
LB round: 1 Solving time: 2.0004 Best Obj: 19735.9190 n_sols_subMIP: 79 K: 10 t_node: 2.0 self.div: 0 LB Status: timelimit
